p edge 24 48
e 1 3
e 1 4
e 1 18
e 2 3
e 2 4
e 3 4
e 3 5
e 3 6
e 3 7
e 3 8
e 3 9
e 3 10
e 3 11
e 3 12
e 3 13
e 3 14
e 3 15
e 3 16
e 3 17
e 3 18
e 3 19
e 3 20
e 3 23
e 4 5
e 4 6
e 4 7
e 4 8
e 4 9
e 4 10
e 4 11
e 4 12
e 4 13
e 4 14
e 4 15
e 4 16
e 4 17
e 4 18
e 4 19
e 4 20
e 6 7
e 6 8
e 9 10
e 11 12
e 13 14
e 15 16
e 15 17
e 21 22
e 23 24
